;(set-option :produce-unsat-cores true )
(set-logic ALL_SUPPORTED )
(declare-sort A$ 0 )
(declare-sort Nat$ 0 )
(declare-sort Nat_bool_fun$ 0 )
(declare-sort Enat_bool_fun$ 0 )
(declare-sort Nat_nat_bool_fun_fun$ 0 )
(declare-sort Enat_enat_bool_fun_fun$ 0 )
(declare-sort A_llist$ 0)
(declare-fun lNil$ ()A_llist$)
(declare-fun lhd$ (A_llist$)A$)
(declare-fun ltl$ (A_llist$)A_llist$)
(declare-fun lCons$ (A$ A_llist$ )A_llist$)
(declare-datatypes ()((Nat_option$ (none$ )(some$ (the$ Nat$ )))(Enat$ (abs_enat$ (rep_enat$ Nat_option$ )))))
(declare-fun k$ ()Nat$ )
(declare-fun n$ ()Nat$ )
(declare-fun xs$ ()A_llist$ )
(declare-fun ys$ ()A_llist$ )
(declare-fun enat$ (Nat$ )Enat$ )
(declare-fun lnth$ (A_llist$ Nat$ )A$ )
(declare-fun minus$ (Nat$ Nat$ )Nat$ )
(declare-fun minus$a (Enat$ Enat$ )Enat$ )
(declare-fun fun_app$ (Nat_bool_fun$ Nat$ )Bool )
(declare-fun lappend$ (A_llist$ A_llist$ )A_llist$ )
(declare-fun less_eq$ (Nat$ Nat$ )Bool )
(declare-fun llength$ (A_llist$ )Enat$ )
(declare-fun fun_app$a (Nat_nat_bool_fun_fun$ Nat$ )Nat_bool_fun$ )
(declare-fun fun_app$b (Enat_bool_fun$ Enat$ )Bool )
(declare-fun fun_app$c (Enat_enat_bool_fun_fun$ Enat$ )Enat_bool_fun$ )
(declare-fun less_eq$a (Enat$ Enat$ )Bool )
(assert (! (not (= (lnth$ (lappend$ xs$ ys$ )n$ )(lnth$ ys$ (minus$ n$ k$ )))):named a0 ))
(assert (! (= (llength$ xs$ )(enat$ k$ )):named a1 ))
(assert (! (less_eq$ k$ n$ ):named a2 ))
(assert (! (forall ((?v0 A_llist$ )(?v1 A_llist$ )(?v2 A_llist$ ))(= (lappend$ (lappend$ ?v0 ?v1 )?v2 )(lappend$ ?v0 (lappend$ ?v1 ?v2 )))):named a3 ))
(assert (! (forall ((?v0 Nat_nat_bool_fun_fun$ )(?v1 Nat$ )(?v2 Nat$ ))(=> (and (forall ((?v3 Nat$ )(?v4 Nat$ ))(=> (less_eq$ ?v3 ?v4 )(fun_app$ (fun_app$a ?v0 ?v3 )?v4 )))(=> (fun_app$ (fun_app$a ?v0 ?v1 )?v2 )(fun_app$ (fun_app$a ?v0 ?v2 )?v1 )))(fun_app$ (fun_app$a ?v0 ?v2 )?v1 ))):named a4 ))
(assert (! (forall ((?v0 Enat_enat_bool_fun_fun$ )(?v1 Enat$ )(?v2 Enat$ ))(=> (and (forall ((?v3 Enat$ )(?v4 Enat$ ))(=> (less_eq$a ?v3 ?v4 )(fun_app$b (fun_app$c ?v0 ?v3 )?v4 )))(=> (fun_app$b (fun_app$c ?v0 ?v1 )?v2 )(fun_app$b (fun_app$c ?v0 ?v2 )?v1 )))(fun_app$b (fun_app$c ?v0 ?v2 )?v1 ))):named a5 ))
(assert (! (forall ((?v0 Nat$ )(?v1 Nat$ ))(=> (less_eq$ ?v0 ?v1 )(= (minus$ ?v1 (minus$ ?v1 ?v0 ))?v0 ))):named a6 ))
(assert (! (forall ((?v0 Nat$ )(?v1 Nat$ ))(= (= (enat$ ?v0 )(enat$ ?v1 ))(= ?v0 ?v1 ))):named a7 ))
(assert (! (forall ((?v0 Nat$ ))(less_eq$ ?v0 ?v0 )):named a8 ))
(assert (! (forall ((?v0 Enat$ ))(less_eq$a ?v0 ?v0 )):named a9 ))
(assert (! (forall ((?v0 Nat$ )(?v1 Nat$ )(?v2 Nat$ ))(=> (and (less_eq$ ?v0 ?v1 )(less_eq$ ?v0 ?v2 ))(= (= (minus$ ?v1 ?v0 )(minus$ ?v2 ?v0 ))(= ?v1 ?v2 )))):named a10 ))
(assert (! (forall ((?v0 Nat$ )(?v1 Nat$ )(?v2 Nat$ ))(=> (and (less_eq$ ?v0 ?v1 )(less_eq$ ?v0 ?v2 ))(= (minus$ (minus$ ?v1 ?v0 )(minus$ ?v2 ?v0 ))(minus$ ?v1 ?v2 )))):named a11 ))
(assert (! (forall ((?v0 Nat$ )(?v1 Nat$ )(?v2 Nat$ ))(=> (and (less_eq$ ?v0 ?v1 )(less_eq$ ?v0 ?v2 ))(= (less_eq$ (minus$ ?v1 ?v0 )(minus$ ?v2 ?v0 ))(less_eq$ ?v1 ?v2 )))):named a12 ))
(assert (! (forall ((?v0 Nat$ )(?v1 Nat$ )(?v2 Nat$ ))(=> (less_eq$ ?v0 ?v1 )(less_eq$ (minus$ ?v2 ?v1 )(minus$ ?v2 ?v0 )))):named a13 ))
(assert (! (forall ((?v0 Nat$ )(?v1 Nat$ )(?v2 Nat$ ))(=> (less_eq$ ?v0 ?v1 )(less_eq$ (minus$ ?v0 ?v2 )(minus$ ?v1 ?v2 )))):named a14 ))
(assert (! (forall ((?v0 Nat$ )(?v1 Nat$ ))(less_eq$ (minus$ ?v0 ?v1 )?v0 )):named a15 ))
(assert (! (forall ((?v0 Nat$ )(?v1 Nat$ ))(! (= (less_eq$a (enat$ ?v0 )(enat$ ?v1 ))(less_eq$ ?v0 ?v1 )):pattern ((less_eq$a (enat$ ?v0 )(enat$ ?v1 ))))):named a16 ))
(assert (! (forall ((?v0 Nat$ )(?v1 Nat$ ))(! (= (minus$a (enat$ ?v0 )(enat$ ?v1 ))(enat$ (minus$ ?v0 ?v1 ))):pattern ((minus$a (enat$ ?v0 )(enat$ ?v1 ))))):named a17 ))
(assert (! (forall ((?v0 Enat$ )(?v1 Nat$ ))(=> (less_eq$a ?v0 (enat$ ?v1 ))(exists ((?v2 Nat$ ))(= ?v0 (enat$ ?v2 ))))):named a18 ))
(check-sat )
;(get-unsat-core )
